CapLotSizing_PM/src/Instancias/TCLSLT/6i6p4m/NBB06.OUT
 CG ITER, OVMR, OVMRUB =           1   11327.9970703    6826.3012695
 CG ITER, OVMR, OVMRUB =           2    7420.9521484    6826.3012695
 CG ITER, OVMR, OVMRUB =           3    7420.9521484    6826.3012695
 CG ITER, OVMR, OVMRUB =           4    7420.9521484    6826.3012695
 CG ITER, OVMR, OVMRUB =           5    7420.9521484    6826.3012695
 CG ITER, OVMR, OVMRUB =           6    7420.9521484    6826.3012695
 CG ITER, OVMR, OVMRUB =           7    7420.9521484    6826.3012695
 CG ITER, OVMR, OVMRUB =           8    7420.9521484    6826.3012695
 CG ITER, OVMR, OVMRUB =           9    7420.9521484    6826.3012695
 CG ITER, OVMR, OVMRUB =          10    7420.9521484    6826.3012695
OVLB =    7420.9521484 OVLUB =    6826.3012695 TIME =       0.6100000
